(set-info :smt-lib-version 2.6)
(set-logic QF_UFLRA)
(set-info :source |
MathSat group

|)
(set-info :category "random")
(set-info :status unsat)
(declare-fun f0_1 (Real) Real)
(declare-fun f0_2 (Real Real) Real)
(declare-fun f0_3 (Real Real Real) Real)
(declare-fun f0_4 (Real Real Real Real) Real)
(declare-fun f1_1 (Real) Real)
(declare-fun f1_2 (Real Real) Real)
(declare-fun f1_3 (Real Real Real) Real)
(declare-fun f1_4 (Real Real Real Real) Real)
(declare-fun x0 () Real)
(declare-fun x1 () Real)
(declare-fun x2 () Real)
(declare-fun x3 () Real)
(declare-fun x4 () Real)
(declare-fun x5 () Real)
(declare-fun x6 () Real)
(declare-fun x7 () Real)
(declare-fun x8 () Real)
(declare-fun x9 () Real)
(declare-fun x10 () Real)
(declare-fun x11 () Real)
(declare-fun x12 () Real)
(declare-fun x13 () Real)
(declare-fun x14 () Real)
(declare-fun x15 () Real)
(declare-fun x16 () Real)
(declare-fun x17 () Real)
(declare-fun x18 () Real)
(declare-fun x19 () Real)
(declare-fun P0 () Bool)
(declare-fun P1 () Bool)
(declare-fun P2 () Bool)
(declare-fun P3 () Bool)
(declare-fun P4 () Bool)
(declare-fun P5 () Bool)
(declare-fun P6 () Bool)
(declare-fun P7 () Bool)
(declare-fun P8 () Bool)
(declare-fun P9 () Bool)
(declare-fun P10 () Bool)
(declare-fun P11 () Bool)
(declare-fun P12 () Bool)
(declare-fun P13 () Bool)
(declare-fun P14 () Bool)
(declare-fun P15 () Bool)
(declare-fun P16 () Bool)
(declare-fun P17 () Bool)
(declare-fun P18 () Bool)
(declare-fun P19 () Bool)
(assert (let ((?v_143 (f1_1 x4)) (?v_114 (* 27 x17)) (?v_46 (* 26 x12)) (?v_41 (f0_1 x5)) (?v_99 (f0_1 x17)) (?v_31 (f1_1 x10)) (?v_7 (f0_2 x5 x1)) (?v_37 (f0_2 x7 x1)) (?v_115 (f0_2 x7 x6)) (?v_23 (* 2 x9)) (?v_3 (* 15 x16)) (?v_181 (f1_1 x18)) (?v_19 (f0_1 x14)) (?v_1 (f0_1 x13)) (?v_32 (f1_2 x1 x14)) (?v_103 (f1_1 x16)) (?v_113 (* 21 x11)) (?v_5 (- (- (* 9 x17) (* 7 x10)) (* 17 x16))) (?v_21 (f0_1 x18)) (?v_62 (f1_2 x4 x0)) (?v_12 (f1_2 x10 x6)) (?v_116 (f1_2 x19 x18)) (?v_119 (< (- (- (* 16 x19) (* 3 x12)) (* 4 x11)) 9))) (let ((?v_6 (= (f1_2 x9 x13) ?v_37)) (?v_90 (< (f1_2 x10 x1) 14)) (?v_9 (= ?v_99 ?v_31)) (?v_124 (< (f0_1 x16) 16)) (?v_120 (< (f0_2 x1 x4) 28)) (?v_34 (= ?v_5 ?v_5)) (?v_88 (< ?v_32 15)) (?v_20 (< (+ (- (* 4 x19) (* 13 x18)) (* 19 x12)) 24)) (?v_60 (< x13 4)) (?v_185 (< ?v_103 20)) (?v_44 (< (f1_2 ?v_31 x5) 27)) (?v_79 (< ?v_143 6)) (?v_165 (= x18 (f1_2 x3 x3))) (?v_163 (< (f1_2 x5 x19) 2)) (?v_167 (< ?v_5 18)) (?v_125 (< ?v_62 18)) (?v_126 (< ?v_116 29)) (?v_164 (< x13 6)) (?v_43 (< x17 17)) (?v_220 (= ?v_32 x2)) (?v_70 (< x14 12)) (?v_101 (< (+ (- (* 11 x19) (* 16 x7)) (* 21 (- (- (* 26 x8) ?v_46) ?v_114))) 4)) (?v_193 (< x4 8)) (?v_121 (< ?v_103 10)) (?v_203 (not P12))) (let ((?v_29 (not ?v_164)) (?v_206 (not ?v_9)) (?v_56 (not P5)) (?v_61 (not P19)) (?v_136 (not P8)) (?v_94 (not P7)) (?v_87 (not ?v_20)) (?v_213 (not P11)) (?v_95 (not P1)) (?v_104 (not P17)) (?v_214 (not ?v_34)) (?v_196 (not P0)) (?v_53 (not ?v_6)) (?v_89 (not ?v_101)) (?v_137 (not P2)) (?v_180 (not ?v_60)) (?v_142 (not P16)) (?v_81 (not ?v_119)) (?v_80 (not ?v_167)) (?v_130 (not P10)) (?v_97 (not ?v_79)) (?v_217 (not ?v_88)) (?v_96 (not ?v_90)) (?v_228 (not ?v_121)) (?v_129 (not P3)) (?v_159 (not P13)) (?v_207 (not ?v_193)) (?v_241 (not ?v_126)) (?v_145 (not ?v_165)) (?v_202 (not P4)) (?v_194 (not ?v_120)) (?v_174 (not ?v_70)) (?v_160 (not P15)) (?v_240 (not P18)) (?v_230 (not ?v_124)) (?v_261 (not ?v_163)) (?v_244 (not ?v_185)) (?v_238 (not ?v_125)) (?v_192 (not P14)) (?v_197 (not P9)) (?v_226 (not P6)) (?v_250 (not ?v_44)) (?v_245 (not ?v_220)) (?v_26 (- (- (* 17 x11) x3) (* 16 x4)))) (let ((?v_186 (< ?v_26 20))) (let ((?v_91 (not ?v_186)) (?v_189 (= (+ ?v_113 ?v_114 (* 24 x7)) ?v_115))) (let ((?v_135 (not ?v_189)) (?v_64 (+ (* (- 17) x14) ?v_23 ?v_3)) (?v_4 (- (+ (* (- 4) x19) (* 29 x7)) (* 23 x5)))) (let ((?v_10 (f0_2 ?v_4 x19))) (let ((?v_0 (f0_2 ?v_64 ?v_10))) (let ((?v_110 (< ?v_0 3))) (let ((?v_65 (not ?v_110)) (?v_8 (< x0 (- 8))) (?v_27 (< ?v_0 (- 15))) (?v_57 (+ (- (* (- 4) x17) (* 2 x7)) (* 6 x0)))) (let ((?v_38 (< ?v_57 (- 24))) (?v_66 (< ?v_7 (- 1))) (?v_25 (* (- 17) x1))) (let ((?v_50 (+ (- ?v_25 (* 10 x5)) (* 20 x16)))) (let ((?v_107 (f1_2 x8 ?v_50))) (let ((?v_2 (= x3 ?v_107)) (?v_24 (- (+ (* (- 6) x15) (* 10 x17)) (* 9 x8)))) (let ((?v_39 (= ?v_24 (- (+ (* 24 ?v_1) (* 13 x17)) (* 26 x7)))) (?v_42 (< ?v_1 (- 17))) (?v_30 (< ?v_181 (- 23))) (?v_85 (not ?v_2)) (?v_133 (- (+ (* (- 7) x19) ?v_46) ?v_3))) (let ((?v_221 (= ?v_133 ?v_4))) (let ((?v_166 (not ?v_221)) (?v_73 (< x0 (- 15))) (?v_150 (< ?v_7 (- 24))) (?v_132 (- (- (* (- 27) x5) (* 25 x19)) (* 7 x16)))) (let ((?v_78 (< ?v_132 (- 18))) (?v_13 (- (+ (* (- 28) x14) (* 26 x9)) (* 19 x17)))) (let ((?v_76 (< ?v_13 20)) (?v_15 (< ?v_12 (- 26))) (?v_14 (< (- (- (* 14 x16) (* 13 x19)) (* 29 x10)) (- 27))) (?v_55 (not ?v_8)) (?v_11 (< (+ (* (- 3) x18) (* 20 (f0_2 x18 x1)) (* 2 x3)) (- 25))) (?v_16 (- (+ (* (- 25) x0) (* 27 x6)) (* 16 x13)))) (let ((?v_40 (- (+ (* 14 ?v_16) (* 13 ?v_10)) (* 13 x3)))) (let ((?v_105 (< ?v_40 (- 6)))) (let ((?v_17 (not ?v_105)) (?v_152 (< ?v_10 (- 5))) (?v_67 (< ?v_41 (- 6)))) (let ((?v_28 (not ?v_67)) (?v_72 (< ?v_1 (- 5)))) (let ((?v_63 (not ?v_72)) (?v_47 (= ?v_12 ?v_13)) (?v_48 (< x13 (- 23)))) (let ((?v_211 (not ?v_48)) (?v_68 (< (- (+ (* (- 3) x3) (* 8 x6)) (* 2 x11)) 28))) (let ((?v_151 (not ?v_68)) (?v_18 (< (- (- (* (- 19) x7) (* 27 x12)) (* 21 x1)) (- 28))) (?v_52 (< ?v_115 (- 13))) (?v_154 (not ?v_15)) (?v_22 (+ (* (- 25) ?v_19) (* 24 ?v_21) (* 12 x13)))) (let ((?v_35 (= (+ (- (* 25 x3) (* 20 x14)) (* 21 x12)) ?v_22)) (?v_83 (< ?v_16 (- 13))) (?v_93 (< ?v_19 (- 24))) (?v_156 (= (- (+ (* (- 11) x10) (* 23 x4)) (* 29 x6)) ?v_10))) (let ((?v_98 (not ?v_156)) (?v_170 (< ?v_21 (- 25))) (?v_201 (< (- (+ (* 20 x13) (* 22 x9)) (* 26 x2)) (- 12)))) (let ((?v_127 (not ?v_201)) (?v_51 (+ (* (- 22) x4) (* 28 x8) (* 10 x0)))) (let ((?v_210 (= ?v_51 ?v_22))) (let ((?v_33 (not ?v_210)) (?v_49 (= ?v_13 ?v_116))) (let ((?v_215 (not ?v_49)) (?v_45 (< (- (+ ?v_113 (* 23 x10)) ?v_23) (- 10)))) (let ((?v_139 (not ?v_45)) (?v_117 (< ?v_19 (- 12))) (?v_229 (< (f1_1 ?v_24) 9))) (let ((?v_82 (not ?v_229)) (?v_36 (- (+ ?v_25 (* 3 x15)) x0))) (let ((?v_177 (= ?v_22 ?v_36)) (?v_173 (< ?v_26 (- 19)))) (let ((?v_161 (not ?v_173)) (?v_178 (not ?v_11)) (?v_111 (< ?v_32 (- 16))) (?v_134 (= (- (- (* (- 8) x18) (* 5 x6)) (* 21 x13)) (f1_2 x4 x13)))) (let ((?v_258 (or ?v_33 ?v_134)) (?v_71 (not ?v_35)) (?v_188 (< ?v_36 (- 16)))) (let ((?v_218 (not ?v_188)) (?v_102 (< ?v_37 (- 25))) (?v_58 (not ?v_38)) (?v_251 (< ?v_16 (- 8)))) (let ((?v_75 (not ?v_251)) (?v_77 (not ?v_39)) (?v_140 (< ?v_40 (- 8)))) (let ((?v_108 (not ?v_140)) (?v_84 (= ?v_22 ?v_41))) (let ((?v_118 (not ?v_84)) (?v_162 (not ?v_42)) (?v_248 (= ?v_10 x7))) (let ((?v_54 (not ?v_248)) (?v_155 (< ?v_36 6)) (?v_92 (= ?v_50 ?v_51)) (?v_109 (< x5 (- 11)))) (let ((?v_184 (not ?v_109)) (?v_59 (f1_2 ?v_57 ?v_62))) (let ((?v_86 (= ?v_59 ?v_4)) (?v_69 (< ?v_59 (- 21))) (?v_123 (< ?v_64 (- 17)))) (let ((?v_223 (not ?v_123)) (?v_212 (not ?v_66)) (?v_252 (< x15 (- 10)))) (let ((?v_169 (not ?v_252)) (?v_74 (< ?v_21 (- 1))) (?v_148 (< ?v_103 (- 10)))) (let ((?v_222 (not ?v_148)) (?v_249 (or ?v_72 ?v_73)) (?v_236 (< ?v_62 (- 2)))) (let ((?v_141 (not ?v_236)) (?v_100 (< (+ (- (* (- 6) x3) (* 22 x5)) x12) 12)) (?v_138 (< ?v_57 7)) (?v_128 (not ?v_76)) (?v_200 (not ?v_52)) (?v_112 (< ?v_59 0)) (?v_253 (not ?v_83)) (?v_190 (< (+ (* 4 x4) (* 11 x14) (* 19 x7)) (- 21))) (?v_172 (not ?v_86)) (?v_149 (not ?v_47)) (?v_187 (not ?v_92)) (?v_227 (not ?v_93)) (?v_106 (< ?v_99 (- 12)))) (let ((?v_208 (not ?v_106)) (?v_254 (not ?v_102)) (?v_233 (not ?v_100)) (?v_131 (< (f0_2 ?v_107 ?v_99) 29))) (let ((?v_225 (not ?v_131)) (?v_157 (not ?v_73)) (?v_231 (not ?v_18)) (?v_176 (< x14 (- 13)))) (let ((?v_122 (not ?v_176)) (?v_147 (< ?v_10 (- 8))) (?v_144 (< ?v_4 14))) (let ((?v_204 (not ?v_144)) (?v_182 (< x17 (- 6))) (?v_158 (< x17 (- 3)))) (let ((?v_153 (not ?v_158)) (?v_146 (< ?v_132 (- 25))) (?v_175 (< ?v_133 (- 9)))) (let ((?v_232 (not ?v_175)) (?v_256 (or ?v_28 ?v_145)) (?v_224 (not ?v_134)) (?v_195 (< ?v_143 (- 8)))) (let ((?v_260 (not ?v_195)) (?v_171 (not ?v_146)) (?v_198 (not ?v_112)) (?v_179 (not ?v_150)) (?v_191 (not ?v_155)) (?v_216 (< ?v_59 7)) (?v_168 (not ?v_30)) (?v_209 (not ?v_117)) (?v_255 (not ?v_69)) (?v_242 (not ?v_152)) (?v_199 (< ?v_181 (- 11))) (?v_183 (not ?v_27)) (?v_205 (not ?v_138)) (?v_259 (or ?v_149 ?v_177)) (?v_234 (not ?v_190)) (?v_219 (not ?v_111)) (?v_239 (not ?v_74)) (?v_237 (not ?v_170)) (?v_235 (not ?v_182)) (?v_243 (not ?v_14))) (let ((?v_257 (not ?v_199)) (?v_246 (not ?v_216)) (?v_247 (not ?v_177)) (?v_262 (not ?v_147))) (and (and (and (and (and (and (and (and (and (and (and (and (and (and (and (and (and (and (and (and (and (and (and (and (and (and (and (and (and (and (and (and (and (and (and (and (and (and (and (and (and (and (and (and (and (and (and (and (and (and (and (and (and (and (and (and (and (and (and (and (and (and (and (and (and (and (and (and (and (and (and (and (and (and (and (and (and (and (and (and (and (and (and (and (and (and (and (and (and (and (and (and (and (and (and (and (and (and (and (and (and (and (and (and (and (and (and (and (and (and (and (and (and (and (and (and (and (and (and (and (and (and (and (and (and (and (and (and (and (and (and (and (and (and (and (and (and (and (and (and (and (and (and (and (and (and (and (and (and (and (and (and (and (and (and (and (and (and (and (and (and (and (and (and (and (and (and (and (and (and (and (and (and (and (and (and (and (and (and (and (and (and (and (and (and (and (and (and (and (and (and (and (and (and (and (and (and (and (and (and (and (and (and (and (and (and (and (and (and (and (and (and (and (and (and (and (and (and (and (and (and (and (and (and (and (and (and (and (and (and (and (and (and (and (and (and (and (and (and (and (and (and (and (and (and (and (and (and (and (and (and (and (and (and (and (and (and (and (and (and (and (and (and (and (and (and (and (and (and (and (and (and (and (and (and (and (and (and (and (and (and (and (and (and (and (and (and (and (and (and (and (and (and (and (and (and (and (and (and (and (and (and (and (and (and (and (and (and (and (and (and (and (and (and (and (and (and (and (and (and (and (and (and (and (and (and (and (and (and (and (and (and (and (and (and (and (and (and (and (and (and (and (and (and (and (and (and (and (and (and (and (and (and (and (and (and (and (and (and (and (and (and (and (and (and (and (and (and (and (and (and (and (and (and (and (and (and (and (and (and (and (and (and (and (and (and (and (and (and (and (and (and (and (and (and (and (and (and (and (and (and (and (and (and (and (and (and (and (and (and (and (and (and (and (and (and (and (and (and (and (and (and (and (and (and (and (and (and (and (and (and (and (and (and (and (and (and (and (and (and (and (and (and (and (and (and (and (and (and (and (and (and (and (and (and (and (and (and (and (and (and (and (and (and (and (and (and (and (and (and (and (and (and (and (and (and (and (and (and (and (and (and (and (and (and (and (and (and (and (and (and (and (and (and (and (and (and (and (and (or (or ?v_65 ?v_8) ?v_27) (or (or ?v_203 ?v_38) ?v_66)) (or (or ?v_2 ?v_39) ?v_42)) (or (or ?v_6 ?v_30) ?v_43)) (or (or ?v_29 ?v_85) ?v_60)) (or (or ?v_166 ?v_34) ?v_88)) (or (or ?v_73 ?v_6) ?v_150)) (or (or ?v_78 ?v_76) ?v_9)) (or (or ?v_20 ?v_15) ?v_14)) (or (or ?v_55 ?v_206) ?v_56)) (or (or ?v_11 ?v_17) ?v_152)) (or (or ?v_70 ?v_28) ?v_61)) (or (or ?v_11 ?v_63) P4)) (or (or ?v_47 ?v_211) ?v_151)) (or (or ?v_18 ?v_52) ?v_136)) (or (or P1 P1) P9)) (or (or ?v_14 ?v_154) ?v_35)) (or (or ?v_2 ?v_94) ?v_83)) (or (or ?v_17 ?v_120) ?v_18)) (or (or ?v_93 ?v_87) ?v_91)) (or (or ?v_98 ?v_170) ?v_163)) (or (or ?v_127 ?v_33) ?v_215)) (or (or ?v_139 P10) ?v_117)) (or (or ?v_82 ?v_177) ?v_213)) (or (or ?v_161 ?v_27) ?v_28)) (or (or ?v_29 ?v_30) ?v_178)) (or (or ?v_44 ?v_95) ?v_111)) (or ?v_258 ?v_104)) (or (or ?v_214 ?v_71) ?v_218)) (or (or ?v_196 ?v_102) ?v_58)) (or (or ?v_75 ?v_77) ?v_53)) (or (or ?v_108 ?v_118) ?v_162)) (or (or ?v_54 ?v_11) ?v_43)) (or (or ?v_79 ?v_44) ?v_45)) (or (or ?v_155 ?v_89) ?v_47)) (or (or ?v_48 ?v_49) ?v_8)) (or (or ?v_92 ?v_52) ?v_17)) (or (or ?v_53 ?v_54) ?v_55)) (or (or ?v_56 ?v_184) P9)) (or (or ?v_11 ?v_137) ?v_86)) (or (or ?v_18 ?v_58) ?v_69)) (or (or ?v_180 ?v_61) ?v_125)) (or (or ?v_63 ?v_90) ?v_223)) (or (or ?v_65 ?v_60) ?v_212)) (or (or ?v_67 ?v_142) ?v_68)) (or (or ?v_68 ?v_60) ?v_69)) (or (or ?v_42 ?v_169) ?v_70)) (or (or ?v_9 ?v_58) ?v_74)) (or (or ?v_71 ?v_222) ?v_67)) (or ?v_249 ?v_141)) (or (or ?v_100 ?v_54) ?v_74)) (or (or ?v_138 ?v_75) ?v_81)) (or (or ?v_9 ?v_128) ?v_80)) (or (or P13 ?v_77) ?v_68)) (or (or (not ?v_78) ?v_130) ?v_97)) (or (or ?v_80 ?v_220) ?v_200)) (or (or P9 ?v_14) ?v_112)) (or (or ?v_81 ?v_58) ?v_82)) (or (or ?v_253 ?v_84) ?v_190)) (or (or ?v_85 ?v_71) ?v_172)) (or (or ?v_61 ?v_149) ?v_87)) (or (or ?v_217 ?v_89) ?v_77)) (or (or ?v_48 ?v_58) ?v_124)) (or (or ?v_96 ?v_91) ?v_187)) (or (or P7 ?v_227) ?v_55)) (or (or ?v_30 ?v_94) ?v_95)) (or (or ?v_60 ?v_96) ?v_35)) (or (or P5 ?v_97) ?v_98)) (or (or ?v_11 ?v_208) ?v_100)) (or (or ?v_101 ?v_92) ?v_254)) (or (or ?v_233 ?v_228) ?v_104)) (or (or ?v_49 ?v_87) ?v_29)) (or (or ?v_105 ?v_106) ?v_93)) (or (or ?v_225 ?v_108) ?v_109)) (or (or ?v_104 P10) ?v_110)) (or (or ?v_18 ?v_27) ?v_157)) (or (or ?v_91 ?v_111) ?v_112)) (or (or ?v_129 ?v_135) ?v_126)) (or (or ?v_117 ?v_231) ?v_122)) (or (or ?v_118 ?v_29) ?v_74)) (or (or ?v_159 ?v_147) P6)) (or (or ?v_45 ?v_83) P17)) (or (or ?v_100 ?v_119) P15)) (or (or ?v_120 ?v_121) ?v_101)) (or (or ?v_111 ?v_122) ?v_58)) (or (or ?v_92 ?v_123) P1)) (or (or ?v_124 ?v_125) ?v_96)) (or (or ?v_207 ?v_241) P17)) (or (or ?v_127 ?v_128) ?v_96)) (or (or ?v_204 ?v_129) ?v_182)) (or (or ?v_130 ?v_131) P13)) (or (or ?v_185 ?v_153) ?v_146)) (or (or ?v_232 ?v_112) ?v_134)) (or ?v_256 ?v_47)) (or (or ?v_135 ?v_136) ?v_42)) (or (or P2 ?v_137) ?v_202)) (or (or ?v_138 ?v_224) ?v_139)) (or (or ?v_131 ?v_131) ?v_45)) (or (or P17 ?v_140) ?v_141)) (or (or ?v_96 ?v_15) ?v_68)) (or (or ?v_78 P1) ?v_194)) (or (or ?v_174 ?v_142) ?v_93)) (or (or ?v_89 ?v_96) ?v_260)) (or (or ?v_144 ?v_6) ?v_145)) (or (or ?v_171 ?v_147) ?v_148)) (or (or ?v_48 ?v_149) ?v_198)) (or (or ?v_179 ?v_151) ?v_160)) (or (or ?v_140 ?v_152) ?v_147)) (or (or ?v_148 ?v_153) ?v_71)) (or (or ?v_106 ?v_146) ?v_52)) (or (or ?v_154 ?v_92) ?v_240)) (or (or ?v_147 ?v_29) ?v_191)) (or (or P11 ?v_156) ?v_216)) (or (or ?v_157 ?v_134) ?v_158)) (or (or ?v_152 ?v_159) ?v_160)) (or (or ?v_52 ?v_139) ?v_168)) (or (or ?v_80 ?v_230) ?v_45)) (or (or ?v_53 ?v_161) ?v_47)) (or (or ?v_38 ?v_142) ?v_74)) (or (or P16 ?v_209) ?v_162)) (or (or ?v_8 ?v_134) ?v_163)) (or (or P17 ?v_90) ?v_261)) (or (or ?v_164 ?v_157) ?v_112)) (or (or ?v_85 ?v_165) ?v_61)) (or (or ?v_110 ?v_255) ?v_104)) (or (or ?v_110 ?v_111) ?v_88)) (or (or ?v_108 ?v_166) ?v_53)) (or (or P10 ?v_48) ?v_167)) (or (or ?v_101 ?v_119) ?v_168)) (or (or ?v_169 ?v_123) ?v_85)) (or (or ?v_170 ?v_9) ?v_171)) (or (or ?v_61 P19) ?v_172)) (or (or ?v_173 ?v_153) ?v_174)) (or (or ?v_135 ?v_111) ?v_102)) (or (or ?v_175 ?v_49) ?v_242)) (or (or ?v_176 ?v_177) ?v_67)) (or (or ?v_91 ?v_157) P11)) (or (or ?v_15 ?v_128) ?v_152)) (or (or ?v_161 ?v_71) ?v_75)) (or (or ?v_178 P18) ?v_9)) (or (or ?v_58 ?v_127) P11)) (or (or ?v_80 ?v_179) ?v_81)) (or (or ?v_180 ?v_138) P17)) (or (or ?v_199 ?v_182) ?v_183)) (or (or ?v_2 P8) ?v_178)) (or (or ?v_183 ?v_161) ?v_117)) (or (or ?v_184 ?v_170) ?v_244)) (or (or ?v_152 ?v_45) ?v_162)) (or (or ?v_238 ?v_94) ?v_84)) (or (or ?v_186 ?v_94) ?v_61)) (or (or ?v_175 ?v_187) ?v_123)) (or (or ?v_192 P7) ?v_78)) (or (or ?v_171 P18) ?v_147)) (or (or ?v_83 ?v_67) ?v_188)) (or (or ?v_47 ?v_145) ?v_189)) (or (or ?v_142 ?v_104) ?v_152)) (or (or ?v_171 ?v_67) ?v_35)) (or (or ?v_144 ?v_190) ?v_27)) (or (or ?v_175 ?v_182) ?v_166)) (or (or ?v_70 ?v_161) ?v_191)) (or (or ?v_197 ?v_84) ?v_154)) (or (or ?v_128 ?v_205) ?v_39)) (or (or ?v_54 ?v_190) ?v_152)) (or (or P19 ?v_188) ?v_136)) (or (or ?v_84 ?v_192) ?v_171)) (or (or ?v_160 ?v_138) ?v_193)) (or (or ?v_194 ?v_195) ?v_196)) (or ?v_259 ?v_156)) (or (or ?v_138 ?v_6) ?v_197)) (or (or ?v_198 ?v_167) ?v_11)) (or (or P10 ?v_33) ?v_174)) (or (or ?v_199 ?v_60) ?v_138)) (or (or ?v_120 ?v_234) ?v_61)) (or (or ?v_86 ?v_35) ?v_45)) (or (or ?v_168 ?v_226) ?v_91)) (or (or ?v_200 ?v_136) ?v_201)) (or (or ?v_14 ?v_202) ?v_34)) (or (or ?v_203 ?v_165) ?v_71)) (or (or ?v_204 ?v_164) ?v_195)) (or (or ?v_154 ?v_54) ?v_146)) (or (or ?v_18 ?v_205) P4)) (or (or ?v_98 P9) ?v_195)) (or (or ?v_27 P14) ?v_49)) (or (or ?v_105 ?v_112) ?v_134)) (or (or P17 ?v_9) ?v_75)) (or (or ?v_94 ?v_182) ?v_38)) (or (or ?v_202 ?v_127) ?v_188)) (or (or ?v_148 ?v_206) ?v_18)) (or (or P3 ?v_141) ?v_91)) (or (or ?v_180 P2) ?v_79)) (or (or ?v_67 ?v_207) ?v_142)) (or (or ?v_141 ?v_219) ?v_179)) (or (or ?v_98 ?v_147) ?v_208)) (or (or ?v_170 ?v_209) ?v_72)) (or (or ?v_112 ?v_90) ?v_210)) (or (or ?v_175 ?v_67) ?v_166)) (or (or ?v_18 ?v_91) ?v_211)) (or (or ?v_83 ?v_212) ?v_213)) (or (or ?v_29 ?v_125) ?v_214)) (or (or ?v_239 ?v_155) ?v_117)) (or (or ?v_120 ?v_215) ?v_14)) (or (or ?v_81 ?v_68) ?v_8)) (or (or P1 ?v_216) ?v_185)) (or (or ?v_125 ?v_110) ?v_217)) (or (or ?v_111 ?v_199) P19)) (or (or ?v_48 ?v_218) ?v_80)) (or (or ?v_219 P7) ?v_54)) (or (or ?v_119 P10) ?v_219)) (or (or ?v_66 ?v_33) ?v_220)) (or (or ?v_121 ?v_63) ?v_139)) (or (or ?v_164 ?v_221) ?v_136)) (or (or ?v_166 ?v_222) ?v_161)) (or (or ?v_174 ?v_184) ?v_223)) (or (or ?v_39 ?v_176) ?v_224)) (or (or ?v_225 ?v_96) ?v_180)) (or (or ?v_226 ?v_227) P15)) (or (or ?v_212 ?v_197) ?v_142)) (or (or ?v_228 ?v_222) ?v_14)) (or (or ?v_76 ?v_229) ?v_230)) (or (or ?v_95 ?v_165) P18)) (or (or ?v_130 ?v_73) ?v_222)) (or (or ?v_121 ?v_154) ?v_216)) (or (or ?v_70 ?v_237) ?v_178)) (or (or ?v_158 ?v_100) ?v_168)) (or (or ?v_228 ?v_159) ?v_231)) (or (or ?v_29 ?v_235) ?v_216)) (or (or ?v_11 ?v_250) ?v_147)) (or (or P15 ?v_104) ?v_169)) (or (or ?v_91 ?v_198) ?v_130)) (or (or ?v_232 ?v_206) ?v_29)) (or (or ?v_175 ?v_118) ?v_233)) (or (or ?v_183 ?v_67) ?v_147)) (or (or P8 ?v_152) ?v_157)) (or (or ?v_186 ?v_234) ?v_17)) (or (or ?v_234 ?v_88) ?v_135)) (or (or ?v_58 ?v_203) ?v_175)) (or (or ?v_60 ?v_235) P2)) (or (or P6 ?v_55) ?v_28)) (or (or ?v_128 ?v_214) ?v_6)) (or (or ?v_47 ?v_215) P4)) (or (or ?v_85 ?v_243) ?v_222)) (or (or ?v_29 ?v_257) ?v_54)) (or (or ?v_67 ?v_185) ?v_236)) (or (or ?v_135 ?v_97) ?v_127)) (or (or ?v_176 P5) ?v_147)) (or (or ?v_69 ?v_198) ?v_154)) (or (or ?v_33 ?v_237) ?v_27)) (or (or ?v_212 ?v_68) ?v_96)) (or (or ?v_207 ?v_85) ?v_164)) (or (or ?v_224 ?v_177) ?v_203)) (or (or ?v_165 ?v_149) ?v_65)) (or (or ?v_234 ?v_70) ?v_28)) (or (or ?v_216 ?v_52) ?v_129)) (or (or ?v_157 ?v_228) ?v_136)) (or (or ?v_196 ?v_218) ?v_238)) (or (or ?v_174 P7) ?v_217)) (or (or ?v_203 ?v_161) ?v_239)) (or (or P8 ?v_187) ?v_214)) (or (or ?v_240 ?v_73) ?v_241)) (or (or ?v_200 ?v_68) ?v_42)) (or (or ?v_226 ?v_124) ?v_117)) (or (or ?v_28 ?v_149) ?v_150)) (or (or ?v_211 ?v_171) ?v_222)) (or (or ?v_30 ?v_134) ?v_39)) (or (or ?v_150 ?v_217) ?v_17)) (or (or ?v_242 ?v_158) ?v_173)) (or (or ?v_126 P2) ?v_121)) (or (or ?v_75 ?v_9) ?v_190)) (or (or ?v_68 ?v_102) ?v_8)) (or (or ?v_124 ?v_18) ?v_27)) (or (or ?v_151 ?v_246) ?v_153)) (or (or ?v_78 ?v_243) ?v_217)) (or (or ?v_220 ?v_226) ?v_247)) (or (or ?v_228 ?v_95) ?v_45)) (or (or ?v_180 ?v_56) ?v_49)) (or (or ?v_244 P17) ?v_245)) (or (or ?v_108 ?v_139) ?v_245)) (or (or ?v_215 ?v_161) ?v_48)) (or (or ?v_207 ?v_233) ?v_150)) (or (or ?v_56 P13) ?v_227)) (or (or ?v_242 ?v_74) ?v_185)) (or (or ?v_224 ?v_17) ?v_245)) (or (or ?v_145 ?v_245) P16)) (or (or ?v_220 ?v_131) ?v_71)) (or (or ?v_54 ?v_77) ?v_195)) (or (or P17 ?v_141) ?v_215)) (or (or ?v_232 ?v_118) ?v_91)) (or (or ?v_185 ?v_11) ?v_155)) (or (or ?v_147 ?v_129) ?v_182)) (or (or ?v_87 ?v_214) P12)) (or (or ?v_241 ?v_227) ?v_34)) (or (or P15 ?v_246) ?v_120)) (or (or ?v_100 P12) ?v_164)) (or (or ?v_151 ?v_194) ?v_218)) (or (or ?v_146 ?v_232) ?v_210)) (or (or ?v_235 P19) ?v_69)) (or (or ?v_187 ?v_239) ?v_129)) (or (or ?v_65 ?v_63) ?v_117)) (or (or P11 ?v_197) ?v_208)) (or (or ?v_194 ?v_216) ?v_241)) (or (or ?v_63 ?v_88) ?v_224)) (or (or ?v_177 ?v_38) ?v_34)) (or (or ?v_38 ?v_67) ?v_232)) (or (or ?v_198 ?v_228) ?v_175)) (or (or ?v_30 ?v_247) ?v_39)) (or (or ?v_174 ?v_213) ?v_242)) (or (or ?v_98 ?v_118) ?v_121)) (or (or ?v_186 ?v_11) ?v_233)) (or (or ?v_154 ?v_147) ?v_87)) (or (or ?v_117 ?v_158) ?v_8)) (or (or ?v_163 ?v_150) P11)) (or (or P17 ?v_248) ?v_221)) (or (or ?v_60 ?v_165) ?v_155)) (or (or ?v_17 ?v_139) ?v_71)) (or (or ?v_239 ?v_78) ?v_165)) (or (or ?v_11 ?v_159) ?v_17)) (or ?v_249 ?v_211)) (or (or ?v_76 ?v_71) ?v_134)) (or (or ?v_168 ?v_219) ?v_184)) (or (or ?v_54 P10) ?v_250)) (or (or ?v_147 ?v_161) ?v_78)) (or (or ?v_100 ?v_78) ?v_213)) (or (or ?v_228 P3) ?v_251)) (or (or ?v_9 ?v_138) ?v_183)) (or (or ?v_18 ?v_137) ?v_84)) (or (or P13 ?v_70) P10)) (or (or ?v_33 ?v_135) ?v_229)) (or (or ?v_27 ?v_96) ?v_28)) (or (or ?v_160 ?v_2) ?v_208)) (or (or P2 ?v_167) P4)) (or (or ?v_166 ?v_252) ?v_211)) (or (or ?v_28 ?v_67) ?v_136)) (or (or ?v_84 ?v_220) ?v_153)) (or (or ?v_60 ?v_109) ?v_165)) (or (or ?v_197 ?v_253) ?v_254)) (or (or ?v_184 ?v_214) ?v_136)) (or (or ?v_224 ?v_14) ?v_92)) (or (or ?v_120 ?v_186) ?v_216)) (or (or ?v_97 ?v_87) ?v_183)) (or (or ?v_203 ?v_79) ?v_234)) (or (or ?v_134 ?v_105) ?v_139)) (or (or ?v_81 ?v_145) ?v_197)) (or (or ?v_225 ?v_222) P4)) (or (or ?v_72 ?v_135) ?v_255)) (or ?v_256 ?v_6)) (or (or ?v_105 ?v_150) ?v_176)) (or (or ?v_192 ?v_215) P3)) (or (or ?v_147 ?v_213) ?v_244)) (or (or ?v_194 ?v_123) ?v_178)) (or (or ?v_92 ?v_214) ?v_138)) (or (or ?v_222 ?v_92) ?v_233)) (or (or ?v_71 ?v_28) ?v_84)) (or (or ?v_85 ?v_119) ?v_227)) (or (or ?v_223 ?v_81) ?v_161)) (or (or ?v_171 ?v_101) ?v_248)) (or (or ?v_54 ?v_195) P0)) (or (or P1 ?v_257) ?v_80)) (or ?v_258 ?v_184)) (or (or ?v_174 ?v_69) ?v_243)) (or (or ?v_91 ?v_227) ?v_212)) (or (or ?v_110 ?v_226) ?v_134)) (or (or ?v_219 ?v_211) ?v_72)) (or (or ?v_160 ?v_152) ?v_128)) (or (or ?v_93 ?v_86) ?v_250)) (or (or ?v_180 ?v_221) ?v_194)) (or (or ?v_146 P13) ?v_52)) (or (or ?v_203 ?v_9) ?v_170)) (or (or ?v_166 ?v_186) P1)) (or (or ?v_68 ?v_224) ?v_92)) (or (or ?v_158 ?v_247) ?v_52)) (or (or ?v_96 ?v_216) ?v_137)) (or (or ?v_185 ?v_244) ?v_246)) (or (or ?v_165 ?v_232) ?v_66)) (or (or ?v_216 ?v_160) ?v_33)) (or (or ?v_43 P7) ?v_45)) (or (or ?v_171 ?v_100) ?v_137)) (or (or ?v_28 ?v_80) ?v_83)) (or (or ?v_98 ?v_164) ?v_141)) (or (or ?v_68 ?v_244) ?v_130)) (or (or P15 ?v_251) ?v_106)) (or (or ?v_158 ?v_128) ?v_61)) (or (or ?v_56 ?v_6) ?v_172)) (or (or P14 ?v_214) ?v_178)) (or (or ?v_8 ?v_82) ?v_243)) (or (or ?v_176 ?v_148) ?v_78)) (or (or ?v_238 ?v_128) ?v_75)) (or (or ?v_20 ?v_47) ?v_92)) (or (or ?v_45 ?v_146) ?v_111)) (or (or ?v_184 ?v_178) ?v_156)) (or (or ?v_157 ?v_162) ?v_136)) (or (or ?v_237 ?v_242) ?v_149)) (or (or ?v_47 ?v_122) ?v_208)) (or (or ?v_125 ?v_163) P16)) (or (or P6 ?v_39) ?v_183)) (or (or ?v_94 ?v_165) ?v_228)) (or (or ?v_85 ?v_176) ?v_220)) (or (or ?v_167 ?v_228) ?v_96)) (or (or ?v_71 ?v_238) ?v_58)) (or (or ?v_123 P2) ?v_100)) (or (or ?v_42 ?v_121) ?v_79)) (or (or ?v_97 ?v_232) ?v_227)) (or (or ?v_156 ?v_160) ?v_193)) (or (or P18 ?v_177) ?v_222)) (or (or ?v_222 ?v_233) ?v_90)) (or (or ?v_242 ?v_150) ?v_102)) (or (or ?v_39 ?v_147) ?v_213)) (or (or ?v_145 ?v_151) ?v_136)) (or ?v_259 ?v_100)) (or (or ?v_63 ?v_149) ?v_180)) (or (or ?v_110 ?v_236) ?v_75)) (or (or ?v_83 ?v_102) ?v_226)) (or (or ?v_43 ?v_141) P10)) (or (or ?v_84 ?v_124) ?v_42)) (or (or ?v_235 ?v_66) ?v_78)) (or (or ?v_148 ?v_186) ?v_29)) (or (or ?v_14 ?v_81) ?v_158)) (or (or ?v_61 ?v_52) ?v_159)) (or (or P15 ?v_224) ?v_104)) (or (or ?v_154 ?v_14) ?v_254)) (or (or ?v_105 ?v_28) ?v_102)) (or (or P17 P11) ?v_137)) (or (or P2 ?v_237) ?v_29)) (or (or ?v_144 ?v_100) ?v_244)) (or (or ?v_156 ?v_111) ?v_214)) (or (or ?v_108 ?v_66) ?v_102)) (or (or ?v_260 ?v_220) ?v_204)) (or (or ?v_235 ?v_86) ?v_97)) (or (or ?v_55 ?v_209) ?v_94)) (or (or ?v_194 ?v_262) ?v_124)) (or (or ?v_153 ?v_203) ?v_166)) (or (or ?v_224 ?v_93) ?v_122)) (or (or ?v_145 ?v_27) ?v_135)) (or (or ?v_159 ?v_169) ?v_84)) (or (or ?v_152 ?v_211) ?v_49)) (or (or ?v_220 ?v_183) ?v_204)) (or (or ?v_155 ?v_217) ?v_164)) (or (or P11 ?v_245) ?v_156)) (or (or ?v_48 ?v_61) ?v_49)) (or (or ?v_250 ?v_195) ?v_169)) (or (or ?v_29 ?v_186) P3)) (or (or ?v_199 ?v_260) ?v_150)) (or (or ?v_170 ?v_55) ?v_47)) (or (or ?v_253 ?v_190) ?v_125)) (or (or ?v_243 ?v_209) ?v_252)) (or (or P16 ?v_244) ?v_157)) (or (or ?v_98 ?v_220) ?v_83)) (or (or ?v_241 ?v_157) ?v_68)) (or (or ?v_71 ?v_211) ?v_68)) (or (or ?v_204 ?v_104) ?v_74)) (or (or ?v_134 ?v_147) ?v_239)) (or (or ?v_20 ?v_33) ?v_156)) (or (or P17 ?v_117) ?v_128)) (or (or P18 ?v_228) ?v_111)) (or (or ?v_49 ?v_76) ?v_43)) (or (or ?v_104 ?v_55) ?v_124)) (or (or ?v_72 ?v_27) ?v_247)) (or (or ?v_29 ?v_228) P14)) (or (or ?v_200 ?v_106) ?v_78)) (or (or ?v_174 ?v_250) ?v_34)) (or (or ?v_74 ?v_239) ?v_144)) (or (or ?v_175 ?v_190) ?v_156)) (or (or ?v_56 ?v_260) ?v_71)) (or (or ?v_72 ?v_174) ?v_84)) (or (or ?v_122 ?v_245) ?v_229)) (or (or ?v_251 ?v_55) ?v_261)) (or (or ?v_233 ?v_70) ?v_194)) (or (or ?v_94 ?v_125) ?v_48)) (or (or ?v_101 ?v_147) ?v_226)) (or (or ?v_226 ?v_212) ?v_195)) (or (or ?v_150 ?v_18) ?v_220)) (or (or ?v_163 ?v_135) ?v_155)) (or (or ?v_84 ?v_165) ?v_175)) (or (or ?v_48 ?v_47) ?v_175)) (or (or ?v_193 ?v_141) ?v_225)) (or (or ?v_66 ?v_222) ?v_135)) (or (or P4 ?v_177) ?v_214)) (or (or ?v_145 ?v_175) ?v_238)) (or (or ?v_151 ?v_183) ?v_146)) (or (or ?v_214 ?v_193) ?v_221)) (or (or ?v_204 ?v_44) ?v_151)) (or (or ?v_257 ?v_130) ?v_176)) (or (or P17 ?v_190) ?v_85)) (or (or ?v_47 ?v_102) ?v_175)) (or (or ?v_142 ?v_250) ?v_77)) (or (or ?v_142 ?v_92) ?v_63)) (or (or ?v_187 P10) ?v_67)) (or (or ?v_149 P15) ?v_104)) (or (or ?v_52 ?v_94) ?v_88)) (or (or ?v_71 P9) ?v_196)) (or (or ?v_38 ?v_242) ?v_77)) (or (or ?v_170 P4) ?v_65)) (or (or ?v_147 ?v_110) ?v_217)) (or (or ?v_146 ?v_140) ?v_112)) (or (or ?v_262 ?v_165) ?v_94)) (or (or ?v_39 ?v_245) ?v_63)) (or (or ?v_230 ?v_39) ?v_142)) (or (or ?v_146 ?v_39) ?v_54)) (or (or ?v_219 ?v_27) ?v_210)) (or (or ?v_172 ?v_217) ?v_245)) (or (or ?v_248 P7) ?v_112)))))))))))))))))))))))))))))))))))))))))))))))))))))))))))
(check-sat)
(exit)
